c File: flat50_3_0.col
c
c SOURCE: Joseph Culberson (joe@cs.ualberta.ca)
c DESCRIPTION: Quasi-random coloring problem
c              generated with flatness = 0
c                             probability = 0.139
c                             known coloring = 3
c                             random seed = 1251
c              Creation Date:  Tue Jun  9 12:04:48 1998
c Maximum degree = 8 Minimum degree = 1
c p edge 50 115
c cnf created by edge2cnf
p cnf 150 545
-1 -2 0
-1 -3 0
-2 -3 0
1 2 3 0
-4 -5 0
-4 -6 0
-5 -6 0
4 5 6 0
-7 -8 0
-7 -9 0
-8 -9 0
7 8 9 0
-10 -11 0
-10 -12 0
-11 -12 0
10 11 12 0
-13 -14 0
-13 -15 0
-14 -15 0
13 14 15 0
-16 -17 0
-16 -18 0
-17 -18 0
16 17 18 0
-19 -20 0
-19 -21 0
-20 -21 0
19 20 21 0
-22 -23 0
-22 -24 0
-23 -24 0
22 23 24 0
-25 -26 0
-25 -27 0
-26 -27 0
25 26 27 0
-28 -29 0
-28 -30 0
-29 -30 0
28 29 30 0
-31 -32 0
-31 -33 0
-32 -33 0
31 32 33 0
-34 -35 0
-34 -36 0
-35 -36 0
34 35 36 0
-37 -38 0
-37 -39 0
-38 -39 0
37 38 39 0
-40 -41 0
-40 -42 0
-41 -42 0
40 41 42 0
-43 -44 0
-43 -45 0
-44 -45 0
43 44 45 0
-46 -47 0
-46 -48 0
-47 -48 0
46 47 48 0
-49 -50 0
-49 -51 0
-50 -51 0
49 50 51 0
-52 -53 0
-52 -54 0
-53 -54 0
52 53 54 0
-55 -56 0
-55 -57 0
-56 -57 0
55 56 57 0
-58 -59 0
-58 -60 0
-59 -60 0
58 59 60 0
-61 -62 0
-61 -63 0
-62 -63 0
61 62 63 0
-64 -65 0
-64 -66 0
-65 -66 0
64 65 66 0
-67 -68 0
-67 -69 0
-68 -69 0
67 68 69 0
-70 -71 0
-70 -72 0
-71 -72 0
70 71 72 0
-73 -74 0
-73 -75 0
-74 -75 0
73 74 75 0
-76 -77 0
-76 -78 0
-77 -78 0
76 77 78 0
-79 -80 0
-79 -81 0
-80 -81 0
79 80 81 0
-82 -83 0
-82 -84 0
-83 -84 0
82 83 84 0
-85 -86 0
-85 -87 0
-86 -87 0
85 86 87 0
-88 -89 0
-88 -90 0
-89 -90 0
88 89 90 0
-91 -92 0
-91 -93 0
-92 -93 0
91 92 93 0
-94 -95 0
-94 -96 0
-95 -96 0
94 95 96 0
-97 -98 0
-97 -99 0
-98 -99 0
97 98 99 0
-100 -101 0
-100 -102 0
-101 -102 0
100 101 102 0
-103 -104 0
-103 -105 0
-104 -105 0
103 104 105 0
-106 -107 0
-106 -108 0
-107 -108 0
106 107 108 0
-109 -110 0
-109 -111 0
-110 -111 0
109 110 111 0
-112 -113 0
-112 -114 0
-113 -114 0
112 113 114 0
-115 -116 0
-115 -117 0
-116 -117 0
115 116 117 0
-118 -119 0
-118 -120 0
-119 -120 0
118 119 120 0
-121 -122 0
-121 -123 0
-122 -123 0
121 122 123 0
-124 -125 0
-124 -126 0
-125 -126 0
124 125 126 0
-127 -128 0
-127 -129 0
-128 -129 0
127 128 129 0
-130 -131 0
-130 -132 0
-131 -132 0
130 131 132 0
-133 -134 0
-133 -135 0
-134 -135 0
133 134 135 0
-136 -137 0
-136 -138 0
-137 -138 0
136 137 138 0
-139 -140 0
-139 -141 0
-140 -141 0
139 140 141 0
-142 -143 0
-142 -144 0
-143 -144 0
142 143 144 0
-145 -146 0
-145 -147 0
-146 -147 0
145 146 147 0
-148 -149 0
-148 -150 0
-149 -150 0
148 149 150 0
-64 -1 0
-65 -2 0
-66 -3 0
-76 -1 0
-77 -2 0
-78 -3 0
-85 -1 0
-86 -2 0
-87 -3 0
-94 -1 0
-95 -2 0
-96 -3 0
-127 -1 0
-128 -2 0
-129 -3 0
-64 -4 0
-65 -5 0
-66 -6 0
-73 -4 0
-74 -5 0
-75 -6 0
-79 -4 0
-80 -5 0
-81 -6 0
-88 -4 0
-89 -5 0
-90 -6 0
-121 -4 0
-122 -5 0
-123 -6 0
-124 -4 0
-125 -5 0
-126 -6 0
-136 -4 0
-137 -5 0
-138 -6 0
-52 -7 0
-53 -8 0
-54 -9 0
-58 -7 0
-59 -8 0
-60 -9 0
-85 -7 0
-86 -8 0
-87 -9 0
-88 -7 0
-89 -8 0
-90 -9 0
-76 -10 0
-77 -11 0
-78 -12 0
-79 -10 0
-80 -11 0
-81 -12 0
-88 -10 0
-89 -11 0
-90 -12 0
-103 -10 0
-104 -11 0
-105 -12 0
-115 -10 0
-116 -11 0
-117 -12 0
-79 -13 0
-80 -14 0
-81 -15 0
-88 -13 0
-89 -14 0
-90 -15 0
-91 -13 0
-92 -14 0
-93 -15 0
-106 -13 0
-107 -14 0
-108 -15 0
-121 -13 0
-122 -14 0
-123 -15 0
-133 -13 0
-134 -14 0
-135 -15 0
-139 -13 0
-140 -14 0
-141 -15 0
-52 -16 0
-53 -17 0
-54 -18 0
-58 -16 0
-59 -17 0
-60 -18 0
-124 -16 0
-125 -17 0
-126 -18 0
-130 -16 0
-131 -17 0
-132 -18 0
-145 -16 0
-146 -17 0
-147 -18 0
-52 -19 0
-53 -20 0
-54 -21 0
-67 -19 0
-68 -20 0
-69 -21 0
-76 -19 0
-77 -20 0
-78 -21 0
-82 -19 0
-83 -20 0
-84 -21 0
-121 -19 0
-122 -20 0
-123 -21 0
-133 -19 0
-134 -20 0
-135 -21 0
-142 -19 0
-143 -20 0
-144 -21 0
-148 -19 0
-149 -20 0
-150 -21 0
-55 -22 0
-56 -23 0
-57 -24 0
-61 -22 0
-62 -23 0
-63 -24 0
-136 -25 0
-137 -26 0
-138 -27 0
-148 -25 0
-149 -26 0
-150 -27 0
-70 -28 0
-71 -29 0
-72 -30 0
-106 -28 0
-107 -29 0
-108 -30 0
-109 -28 0
-110 -29 0
-111 -30 0
-118 -28 0
-119 -29 0
-120 -30 0
-61 -31 0
-62 -32 0
-63 -33 0
-76 -31 0
-77 -32 0
-78 -33 0
-106 -31 0
-107 -32 0
-108 -33 0
-115 -31 0
-116 -32 0
-117 -33 0
-130 -31 0
-131 -32 0
-132 -33 0
-142 -31 0
-143 -32 0
-144 -33 0
-64 -34 0
-65 -35 0
-66 -36 0
-67 -34 0
-68 -35 0
-69 -36 0
-70 -34 0
-71 -35 0
-72 -36 0
-91 -34 0
-92 -35 0
-93 -36 0
-103 -34 0
-104 -35 0
-105 -36 0
-139 -37 0
-140 -38 0
-141 -39 0
-106 -40 0
-107 -41 0
-108 -42 0
-130 -40 0
-131 -41 0
-132 -42 0
-148 -40 0
-149 -41 0
-150 -42 0
-52 -43 0
-53 -44 0
-54 -45 0
-70 -43 0
-71 -44 0
-72 -45 0
-124 -43 0
-125 -44 0
-126 -45 0
-133 -43 0
-134 -44 0
-135 -45 0
-61 -46 0
-62 -47 0
-63 -48 0
-73 -46 0
-74 -47 0
-75 -48 0
-79 -46 0
-80 -47 0
-81 -48 0
-103 -46 0
-104 -47 0
-105 -48 0
-115 -46 0
-116 -47 0
-117 -48 0
-133 -46 0
-134 -47 0
-135 -48 0
-148 -46 0
-149 -47 0
-150 -48 0
-58 -49 0
-59 -50 0
-60 -51 0
-70 -49 0
-71 -50 0
-72 -51 0
-130 -52 0
-131 -53 0
-132 -54 0
-103 -55 0
-104 -56 0
-105 -57 0
-106 -55 0
-107 -56 0
-108 -57 0
-118 -58 0
-119 -59 0
-120 -60 0
-133 -58 0
-134 -59 0
-135 -60 0
-118 -61 0
-119 -62 0
-120 -63 0
-124 -61 0
-125 -62 0
-126 -63 0
-121 -64 0
-122 -65 0
-123 -66 0
-139 -64 0
-140 -65 0
-141 -66 0
-142 -64 0
-143 -65 0
-144 -66 0
-145 -64 0
-146 -65 0
-147 -66 0
-115 -67 0
-116 -68 0
-117 -69 0
-136 -67 0
-137 -68 0
-138 -69 0
-139 -67 0
-140 -68 0
-141 -69 0
-103 -70 0
-104 -71 0
-105 -72 0
-127 -70 0
-128 -71 0
-129 -72 0
-124 -73 0
-125 -74 0
-126 -75 0
-118 -76 0
-119 -77 0
-120 -78 0
-133 -76 0
-134 -77 0
-135 -78 0
-139 -76 0
-140 -77 0
-141 -78 0
-145 -76 0
-146 -77 0
-147 -78 0
-109 -79 0
-110 -80 0
-111 -81 0
-118 -79 0
-119 -80 0
-120 -81 0
-124 -79 0
-125 -80 0
-126 -81 0
-142 -79 0
-143 -80 0
-144 -81 0
-142 -82 0
-143 -83 0
-144 -84 0
-133 -85 0
-134 -86 0
-135 -87 0
-121 -88 0
-122 -89 0
-123 -90 0
-148 -88 0
-149 -89 0
-150 -90 0
-106 -91 0
-107 -92 0
-108 -93 0
-121 -91 0
-122 -92 0
-123 -93 0
-139 -91 0
-140 -92 0
-141 -93 0
-145 -91 0
-146 -92 0
-147 -93 0
-109 -94 0
-110 -95 0
-111 -96 0
-106 -97 0
-107 -98 0
-108 -99 0
-112 -97 0
-113 -98 0
-114 -99 0
-130 -100 0
-131 -101 0
-132 -102 0
-145 -100 0
-146 -101 0
-147 -102 0
